#include ".Xresources.local"

#ifndef HOME
#define HOME /home/decklin
#endif
#ifndef FONT
#define FONT Inconsolata
#endif
#ifndef FONTPX
#define FONTPX 14
#endif
#ifndef BIGPX
#define BIGPX 20
#endif
#ifndef LITTLEPX
#define LITTLEPX 10
#endif

! ------------------------------------------------------------------

*international: true

Xft.antialias: true
Xft.hinting: true
Xft.hintstyle: hintfull

! ------------------------------------------------------------------

!define TextFG black
!define TextBG rgb:f7/ff/f7
!define PanelBG rgb:e7/ef/e7
!define ButtonBG rgb:d6/de/d6
!define DarkBG gray20

#define TextFG rgb:00/00/00
#define TextBG rgb:ff/ff/ff
#define TermBG rgb:fa/fa/fa
#define PanelBG rgb:f6/f6/f6
#define ButtonBG rgb:ea/ea/ea
#define DarkBG rgb:2b/2b/2b

#define SmallFont -*-lucida-medium-r-*-*-10-*-*-*-*-*-iso10646-1
#define DefFont -*-lucida-medium-r-*-*-12-*-*-*-*-*-iso10646-1
#define BoldFont -*-lucida-bold-r-*-*-12-*-*-*-*-*-iso10646-1
#define ItalFont -*-lucida-medium-i-*-*-12-*-*-*-*-*-iso10646-1
!#define MonoFont -*-codec terminal text-medium-r-*-*-15-*-*-*-*-*-*-*
!#define MonoBdFont -*-codec terminal text-bold-r-normal-*-15-*-*-*-*-*-*-*
#define MonoFont -*-lucidatypewriter-medium-r-*-*-12-*-*-*-*-*-iso10646-1
#define MonoBdFont -*-lucidatypewriter-bold-r-*-*-12-*-*-*-*-*-iso10646-1
#define HugeFont -*-lucida-medium-r-*-*-24-*-*-*-*-*-iso10646-1

! ------------------------------------------------------------------

*shapeStyle: Rectangle
*Command.shapeStyle: Rectangle
*beNiceToColormap: False
*topShadowContrast: 15
*bottomShadowContrast: 15

*shadowWidth: 1
*highlightThickness: 1
*Label.shadowWidth: 1
*Label.borderWidth: 1

! ------------------------------------------------------------------

*Scrollbar.foreground: DarkBG
*Form.borderColor: DarkBG
*Label.borderColor: DarkBG
!*borderColor: DarkBG
*internalBorderColor: DarkBG
!*borderWidth: 1

*Box.background: PanelBG
*Dialog.background: PanelBG
*Form.background: PanelBG
*Label.background: PanelBG
*Paned.background: PanelBG
*Panner.background: PanelBG
*SimpleMenu.background: PanelBG

*Command.background: ButtonBG
*MenuButton.background: ButtonBG
*Repeater.background: ButtonBG
*Toggle.background: ButtonBG
*Scrollbar.background: ButtonBG
*Panner.foreground: ButtonBG

!*Command.borderWidth: 1
!*MenuButton.borderWidth: 1
!*Repeater.borderWidth: 1
!*Toggle.borderWidth: 1
!*Scrollbar.borderWidth: 1

*TextSink.background: TextBG
*AsciiSink.background: TextBG
*FontGrid.background: TextBG
*Ghostview.background: TextBG
*List.background: TextBG
*Porthole.background: TextBG
*RgbSink.background: TextBG
*RgbText.background: TextBG
*ScrollByLine.background: TextBG
*Text.background: TextBG
*Tree.background: TextBG
*Viewport.background: TextBG

*TextSink.font: DefFont
*MultiSink.font: DefFont
*AsciiSink.font: DefFont
*Command.font: DefFont
*Label.font: DefFont
*List.font: DefFont
*MenuButton.font: DefFont
*RgbSink.font: MonoFont
*SmeBSB.font: DefFont
*Toggle.font: DefFont

*TextSink.fontSet: DefFont
*MultiSink.fontSet: DefFont
*AsciiSink.fontSet: DefFont
*Command.fontSet: DefFont
*Label.fontSet: DefFont
*List.fontSet: DefFont
*MenuButton.fontSet: DefFont
*RgbSink.fontSet: MonoFont
*SmeBSB.fontSet: DefFont
*Toggle.fontSet: DefFont

*Paned.Text.translations: #override\n\
    None <Btn4Down>,<Btn4Up>: previous-page()\n\
    None <Btn5Down>,<Btn5Up>: next-page()\n\
    Shift <Btn4Down>,<Btn4Up>: scroll-one-line-down()\n\
    Shift <Btn5Down>,<Btn5Up>: scroll-one-line-up()\n\

! ------------------------------------------------------------------

Rxvt.font: lucidasanstypewriter-12

URxvt*internalBorder: 4
URxvt.geometry: 80x24
URxvt.scrollBar: true
URxvt.scrollBar_right: true
URxvt.scrollstyle: xterm
URxvt.scrollTtyOutput: True
URxvt.scrollWithBuffer: False
URxvt.saveLines: 5000

URxvt.keysym.Shift-Up: command:\033]720;1\007
URxvt.keysym.Shift-Down: command:\033]721;1\007

URxvt.font: xft:FONT:pixelsize=FONTPX
URxvt.boldFont: xft:FONT:pixelsize=FONTPX
URxvt.italicFont: xft:FONT:pixelsize=FONTPX:italic

BigRxvt.font: xft:FONT:pixelsize=BIGPX
BigRxvt.boldFont: xft:FONT:pixelsize=BIGPX
BigRxvt.italicFont: xft:FONT:pixelsize=BIGPX:italic

LittleRxvt.font: xft:FONT:pixelsize=LITTLEPX
LittleRxvt.boldFont: xft:FONT:pixelsize=LITTLEPX
LittleRxvt.italicFont: xft:FONT:pixelsize=LITTLEPX:italic

URxvt.perl-lib: HOME/.urxvt
URxvt.perl-ext: disable_hint_update.pl

/* 0 black 1 red 2 green 3 yellow 4 blue 5 magenta 6 cyan 7 white */

URxvt.foreground: #2b852b852b85
URxvt.background: #fae0fae0fae0
URxvt.scrollColor: #91eb91eb91eb
URxvt.colorBD: #3e5a70a342fe
URxvt.colorUL: #303056127070

URxvt.color0: #fd70fd70fd70
URxvt.color1: #e6668a3d8a3d
URxvt.color2: #9542e6668a3d
URxvt.color3: #e666e1638a3d
URxvt.color4: #8a3da047e666
URxvt.color5: #d45d8a3de666
URxvt.color6: #8a3dd85fe666
URxvt.color7: #458f45224be9

URxvt.color8:  #89b48a3d88db
URxvt.color9:  #787800000000
URxvt.color10: #0e0e78780000
URxvt.color11: #787871710000
URxvt.color12: #00001c427851
URxvt.color13: #606000007878
URxvt.color14: #000066667878
URxvt.color15: #051f051f051f

/* 0 black 1 red 2 green 3 yellow 4 blue 5 magenta 6 cyan 7 white */

DarkRxvt.background: gray16
DarkRxvt.foreground: gray78
DarkRxvt.colorBD: gray90
DarkRxvt.colorUL: gray90

DarkRxvt.color0: rgb:2/2/3
DarkRxvt.color1: rgb:a/0/0
DarkRxvt.color2: rgb:0/7/0
DarkRxvt.color3: rgb:7/7/0
DarkRxvt.color4: rgb:7/7/a
DarkRxvt.color5: rgb:8/0/8
DarkRxvt.color6: rgb:0/7/8
DarkRxvt.color7: gray75

DarkRxvt.color8: gray45
DarkRxvt.color9: rgb:f/a/a
DarkRxvt.color10: rgb:a/f/a
DarkRxvt.color11: rgb:f/f/7
DarkRxvt.color12: rgb:a/a/f
DarkRxvt.color13: rgb:f/7/f
DarkRxvt.color14: rgb:7/f/f
DarkRxvt.color15: gray90

DarkRxvt.transparent: false
DarkRxvt.shading: 25

! ------------------------------------------------------------------

yeahconsole*term: urxvt
yeahconsole*toggleKey: Super+space
yeahconsole*consoleHeight: 8
yeahconsole*aniDelay: 0
yeahconsole*stepSize: 0
yeahconsole*handleWidth: 1
yeahconsole*handleColor: black

! ------------------------------------------------------------------

Emacs.toolBar: false
